ISTART=1
ICHARG=11

PREC=Normal
ENCUT=300

ALGO=fast
EDIFF=1.0E-6

LCHARG=.FALSE.
LWAVE=.FALSE.

ISPIN=1
NPAR=1
ISMEAR=-5

NEDOS=1000

