K-Points
 0
Monkhost Pack
10 10 10 
0 0 0
