ISTART=0
ICHARG=2

PREC=Normal
ENCUT=380

LWAVE=.FALSE.
LCHARG=.FALSE.

ISPIN=1
NPAR=2
#MAGMOM=5.0
ISMEAR=-5
#SIGMA=0.10

NELMIN=5
NELMAX=100
#ALGO=fast
EDIFF=1.0E-6

#IBRION=1
#ISIF=3
#NSW=20
