fcc                                     
1.00
0.000000  1.812059 1.812059
1.812059  0.000000 1.812059
1.812059  1.812059 0.000000
1 
Direct
0.000000  0.000000 0.000000
