SYSTEM = Li16Fe8Si8O32
ISTART = 0
ICHARG = 2
PREC = Low
ISMEAR = 0
SIGMA = 0.1
ISPIN = 2
ALGO = fast
NPAR = 2
LCHARG = .FALSE.
LWAVE = .FALSE.
LPLANE =.TRUE.
LREAL=Auto
NELMIN = 3
NELM = 60
EDIFF = 1E-4
NBANDS = 233
