Li16Fe8Si8O32                           
    12.51820000000000     
     1.0421536199884430    0.0000000000000000    0.0000000000000000
     0.0000000000000000    0.8748297022758814    0.0000000000000000
     0.0000000000000000    0.0000000000000000    0.3576754471069856
  16   8   8  32
Direct
  0.1307164408862889  0.1731726116618333  0.9456693617830894
  0.6307164408862889  0.6731726116618333  0.9456693617830894
  0.1307164408862889  0.8268273883381667  0.4456693617830894
  0.6307164408862889  0.3268273883381667  0.4456693617830894
  0.3810600184672737  0.1735185187418580  0.9456596687521994
  0.8810600184672737  0.6735185187418580  0.9456596687521994
  0.3810600184672737  0.8264814812581420  0.4456596687521994
  0.8810600184672737  0.3264814812581420  0.4456596687521994
  0.8808774098309584  0.1731760575810384  0.9458109264748273
  0.3808774098309584  0.6731760575810384  0.9458109264748273
  0.8808774098309584  0.8268239424189616  0.4458109264748273
  0.3808774098309584  0.3268239424189545  0.4458109264748273
  0.6305470294374373  0.1735409765661160  0.9455517654106060
  0.1305470294374516  0.6735409765661160  0.9455517654106060
  0.6305470294374373  0.8264590234338840  0.4455517654106060
  0.1305470294374516  0.3264590234338840  0.4455517654106060
  0.0058112393981631  0.5740854829355442  0.4796075997606266
  0.5058112393981631  0.0740854829355442  0.4796075997606266
  0.0058112393981631  0.4259145170644558  0.9796075997606266
  0.5058112393981631  0.9259145170644558  0.9796075997606266
  0.5057909468875010  0.4259708008881020  0.9799078109758526
  0.0057909468875010  0.9259708008881020  0.9799078109758526
  0.5057909468875010  0.5740291991118980  0.4799078109758526
  0.0057909468875010  0.0740291991118980  0.4799078109758526
  0.2556567883923222  0.5849321364590239  0.4280531832813210
  0.7556567883923222  0.0849321364590239  0.4280531832813210
  0.2556567883923222  0.4150678635409761  0.9280531832813210
  0.7556567883923222  0.9150678635409761  0.9280531832813210
  0.7559264487679869  0.4150719724189997  0.9280273355355462
  0.2559264487679869  0.9150719724189997  0.9280273355355462
  0.7559264487679869  0.5849280275810003  0.4280273355355462
  0.2559264487679869  0.0849280275810003  0.4280273355355462
  0.1518408045301669  0.3445037289318620  0.0126689890104927
  0.6518408045301669  0.8445037289318620  0.0126689890104927
  0.1518408045301669  0.6554962710681380  0.5126689890104927
  0.6518408045301669  0.1554962710681380  0.5126689890104927
  0.5058189053317719  0.1005574234480520  0.0079586271085006
  0.0058189053317719  0.6005574234480520  0.0079586271085006
  0.5058189053317719  0.8994425765519480  0.5079586271085006
  0.0058189053317719  0.3994425765519480  0.5079586271085006
  0.2559879325176766  0.9411809107986642  0.5598827309066223
  0.7559879325176766  0.4411809107986642  0.5598827309066223
  0.2559879325176766  0.0588190892013358  0.0598827309066223
  0.7559879325176766  0.5588190892013358  0.0598827309066223
  0.0058053069080941  0.8993994722285237  0.5082212814838840
  0.5058053069080941  0.3993994722285237  0.5082212814838840
  0.0058053069080941  0.1006005277714763  0.0082212814838840
  0.5058053069080941  0.6006005277714763  0.0082212814838840
  0.6519527425529787  0.6551769557003624  0.5126663084114043
  0.1519527425529787  0.1551769557003624  0.5126663084114043
  0.6519527425529787  0.3448230442996376  0.0126663084114043
  0.1519527425529787  0.8448230442996376  0.0126663084114043
  0.8597718714728515  0.3445218975943121  0.0127390213954612
  0.3597718714728515  0.8445218975943192  0.0127390213954612
  0.8597718714728515  0.6554781024056808  0.5127390213954612
  0.3597718714728515  0.1554781024056879  0.5127390213954612
  0.7555851896524715  0.9411854684731438  0.5599112590972553
  0.2555851896524715  0.4411854684731438  0.5599112590972553
  0.7555851896524715  0.0588145315268562  0.0599112590972553
  0.2555851896524715  0.5588145315268562  0.0599112590972553
  0.3596509249660116  0.6551862745918697  0.5127641306122968
  0.8596509249660116  0.1551862745918697  0.5127641306122968
  0.3596509249660116  0.3448137254081303  0.0127641306122968
  0.8596509249660116  0.8448137254081303  0.0127641306122968
