ISTART=0
ICHARG=2

PREC=Normal
ENCUT=300

LWAVE=.FALSE.
LCHARG=.FALSE.

ISPIN=2
NPAR=2
MAGMOM=5.0
ISMEAR=-5

NELMIN=5
NELM=100
ALGO=fast
EDIFF=1.0E-6

#ISIF=0
#IBRION=1
#NSW=20
