bcc                                  
1.00
1.419043  1.419043 -1.419043
-1.419043  1.419043 1.419043
1.419043  -1.419043 1.419043
1 
Direct
0.000000  0.000000 0.000000
