ALGO = Fast
EDIFF = 5.0E-5
ENCUT = 380
ICHARG = 2
ISIF = 3
ISMEAR = -5
ISPIN = 1
ISTART = 0
LCHARG = .FALSE.
LMAXMIX = 4
LREAL = Auto
LWAVE = .FALSE.
NBANDS = 60
NELM = 60
NELMIN = 6
NPAR = 2
PREC = Accurate
