Mg2Mo6S8test                            
   6.50000000000000     
     1.0112300294194967   -0.0818433260999391   -0.0700740428041319
    -0.0812130276810882    1.0260543360283807   -0.0101847905678250
    -0.0693317945252415   -0.0100223865874249    1.0111216976405313
   2   6   8
Direct
  0.2218734630282728  0.9037138717542799  0.0268202572353022
  0.7782206684389384  0.0963136381515405  0.9725664872290699
  0.4677525078788023  0.7665592900205972  0.5842032406502431
  0.5322264956717040  0.2334076514495826  0.4151685261206505
  0.4034038182473610  0.5447551270010828  0.2291100310826047
  0.5965970466515814  0.4552301574761731  0.7702628099965232
  0.2268835106599801  0.3979287048543648  0.5415599881728530
  0.7731054327181411  0.6020573314748959  0.4578446668323489
  0.1745923033485771  0.2159076236035154  0.2053953000336039
  0.8253835952333364  0.7840703284509293  0.7939669680038485
  0.2920263477171134  0.5993900318676273  0.8546065689718968
  0.7079521966468977  0.4005952858857938  0.1447611652543202
  0.3774717150589426  0.1153458544977480  0.7307197503079740
  0.6225087372132798  0.8846389903631011  0.2686444700855671
  0.8621698807138781  0.2861857621871186  0.6329928161804457
  0.1378322807731946  0.7138003509616536  0.3663769538427454
 
  0.00000000E+00  0.00000000E+00  0.00000000E+00
  0.00000000E+00  0.00000000E+00  0.00000000E+00
  0.00000000E+00  0.00000000E+00  0.00000000E+00
  0.00000000E+00  0.00000000E+00  0.00000000E+00
  0.00000000E+00  0.00000000E+00  0.00000000E+00
  0.00000000E+00  0.00000000E+00  0.00000000E+00
  0.00000000E+00  0.00000000E+00  0.00000000E+00
  0.00000000E+00  0.00000000E+00  0.00000000E+00
  0.00000000E+00  0.00000000E+00  0.00000000E+00
  0.00000000E+00  0.00000000E+00  0.00000000E+00
  0.00000000E+00  0.00000000E+00  0.00000000E+00
  0.00000000E+00  0.00000000E+00  0.00000000E+00
  0.00000000E+00  0.00000000E+00  0.00000000E+00
  0.00000000E+00  0.00000000E+00  0.00000000E+00
  0.00000000E+00  0.00000000E+00  0.00000000E+00
  0.00000000E+00  0.00000000E+00  0.00000000E+00
