SYSTEM = SO3
ISTART = 0
ICHARG = 2
PREC = High
ISMEAR = 1
SIGMA = 0.05
ISPIN = 1
ISYM=0
LREAL = .FALSE.
NPAR=1
ALGO=fast
ISIF = 0
NELMIN = 5
NELM = 90
EDIFF = 1E-5
