SO3
1.0
18.000  0.000 0.000
0.000  18.000 0.000
0.000   0.000 18.000
1 3
Cartesian
0.0000000    0.0000000    0.0000000 
1.4199996    0.0000000    0.0000000 
-0.7099998    1.2297557    0.0000000 
-0.7099998   -1.2297557    0.0000000 
