Monkhorst Pack
0
Monkhorst Pack
 2 2 4
 0 0 0
