ALGO = GW0
LSPECTRAL = .TRUE.
NOMEGA = 50
NBANDS = 64
