SYSTEM = PbO2
ISTART = 0
ICHARG = 2
PREC = Normal
ISMEAR = -5
ISPIN = 2
NELMIN = 5
NELM = 60
EDIFF = 1E-5
NPAR = 2
