PbO2                                     
    5.948     
     0.8367    0.0000000000000000    0.0000000000000000
     0.0000000000000000    1.0000    0.0000000000000000
     0.0000000000000000    0.0000000000000000    0.9146
   4   8
Direct
0.0000  0.1780  0.2500
0.5000  0.6780  0.2500
0.0000  0.8220  0.7500
0.5000  0.3220  0.7500
0.2760  0.4100  0.4250
0.2240  0.9100  0.4250
0.2760  0.5900  0.9250
0.2240  0.0900  0.9250
0.7240  0.5900  0.5750
0.7760  0.0900  0.5750
0.7240  0.4100  0.0750
0.7760  0.9100  0.0750

