ISTART=1

PREC=Normal
ENCUT=400

EDIFF=1.0E-6

LCHARG=.FALSE.
LWAVE=.FALSE.

ISPIN=1
ISMEAR=0
SIGMA=0.05

LHFCALC = .TRUE.
HFSCREEN = 0.2
ALGO = All
TIME = 0.4
PRECFOCK = Fast

LORBIT=11
LPARD=.TRUE.
IBAND=15

!Don't set NPAR
