ISTART=0
ICHARG=2

PREC=Normal
ENCUT=220

LWAVE=.FALSE.
LCHARG=.FALSE.

ISPIN=2
NPAR=2
MAGMOM = 1.123456789 1.123456789 1.123456789 1.123456789 1.123456789 1.123456789 1.123456789 1.123456789 1.123456789 1.123456789 1.123456789 1.123456789 1.123456789 1.123456789 1.123456789 1.123456789 1.123456789 1.123456789 1.123456789 1.123456789 1.123456789 1.123456789 1.123456789 1.123456789 1.123456789 1.123456789 1.123456789 1.123456789 1.123456789 1.123456789 1.123456789 1.123456789 1.123456789 1.123456789 1.123456789 1.123456789 1.123456789 1.123456789 1.123456789 1.123456789 1.123456789 1.123456789 1.123456789 1.123456789 1.123456789 1.123456789 1.123456789 1.123456789 1.123456789 1.123456789 1.123456789 1.123456789 1.123456789 1.123456789 1.123456789 1.123456789 1.123456789 1.123456789 1.123456789 1.123456789 1.123456789 1.123456789 1.123456789 1.123456789
ISMEAR=1
SIGMA=0.2

NELMIN=1
NELM=1
ALGO=fast
EDIFF=1.0E-6

