bcc                                  
4.00
1.419043  1.419043 -1.419043
-1.419043  1.419043 1.419043
1.419043  -1.419043 1.419043
64 
Direct
0.0000  0.0000  0.0000
0.0000  0.0000  0.2500
0.0000  0.0000  0.5000
0.0000  0.0000  0.7500
0.0000  0.2500  0.0000
0.0000  0.2500  0.2500
0.0000  0.2500  0.5000
0.0000  0.2500  0.7500
0.0000  0.5000  0.0000
0.0000  0.5000  0.2500
0.0000  0.5000  0.5000
0.0000  0.5000  0.7500
0.0000  0.7500  0.0000
0.0000  0.7500  0.2500
0.0000  0.7500  0.5000
0.0000  0.7500  0.7500
0.2500  0.0000  0.0000
0.2500  0.0000  0.2500
0.2500  0.0000  0.5000
0.2500  0.0000  0.7500
0.2500  0.2500  0.0000
0.2500  0.2500  0.2500
0.2500  0.2500  0.5000
0.2500  0.2500  0.7500
0.2500  0.5000  0.0000
0.2500  0.5000  0.2500
0.2500  0.5000  0.5000
0.2500  0.5000  0.7500
0.2500  0.7500  0.0000
0.2500  0.7500  0.2500
0.2500  0.7500  0.5000
0.2500  0.7500  0.7500
0.5000  0.0000  0.0000
0.5000  0.0000  0.2500
0.5000  0.0000  0.5000
0.5000  0.0000  0.7500
0.5000  0.2500  0.0000
0.5000  0.2500  0.2500
0.5000  0.2500  0.5000
0.5000  0.2500  0.7500
0.5000  0.5000  0.0000
0.5000  0.5000  0.2500
0.5000  0.5000  0.5000
0.5000  0.5000  0.7500
0.5000  0.7500  0.0000
0.5000  0.7500  0.2500
0.5000  0.7500  0.5000
0.5000  0.7500  0.7500
0.7500  0.0000  0.0000
0.7500  0.0000  0.2500
0.7500  0.0000  0.5000
0.7500  0.0000  0.7500
0.7500  0.2500  0.0000
0.7500  0.2500  0.2500
0.7500  0.2500  0.5000
0.7500  0.2500  0.7500
0.7500  0.5000  0.0000
0.7500  0.5000  0.2500
0.7500  0.5000  0.5000
0.7500  0.5000  0.7500
0.7500  0.7500  0.0000
0.7500  0.7500  0.2500
0.7500  0.7500  0.5000
0.7500  0.7500  0.7500
