ISTART=0
ICHARG=2

PREC=Normal
ENCUT=400

EDIFF=1.0E-6

LCHARG=.FALSE.
LWAVE=.FALSE.

ISPIN=1
ISMEAR=0
SIGMA=0.05

LHFCALC = .TRUE.
HFSCREEN = 0.2
ALGO = All
TIME = 0.4
PRECFOCK = Fast

!Don't set NPAR
