diamondlattice                          
1.00
5.428835  0.000000 0.000000
0.000000  5.428835 0.000000
0.000000  0.000000 5.428835
8 
Direct
0.000000  0.000000 0.000000
0.000000  0.500000 0.500000
0.500000  0.500000 0.000000
0.500000  0.000000 0.500000
0.750000  0.250000 0.250000
0.750000  0.750000 0.750000
0.250000  0.750000 0.250000
0.250000  0.250000 0.750000
