ISTART=0
ICHARG=2

PREC=Normal
ENCUT=400

ALGO=fast
EDIFF=1.0E-6

LCHARG=.FALSE.
LWAVE=.FALSE.

ISPIN=1
NPAR=1
ISMEAR=-5

IBRION=1
ISIF=7
NSW=10
POTIM=0.5
