diamondlattice                          
1.00
5.428835  0.000000 0.000000
0.000000  5.428835 0.000000
0.000000  0.000000 5.428835
8 
Direct
0.000000  0.000000 0.000000
0.000000  0.520000 0.500000
0.490000  0.510000 0.000000
0.500000  0.000000 0.500000
0.750000  0.240000 0.250000
0.750000  0.750000 0.730000
0.250000  0.750000 0.240000
0.250000  0.220000 0.760000
